[NpcPos]	Flags	Index	PosX	PosY	Type	IsRangeCheck
0	0	1	36	41	3	1
1	0	2	37	36	2	1
2	0	3	37	13	5	1
3	0	4	10	34	1	1
4	0	5	28	40	1	1
5	0	6	12	43	4	1
6	0	7	43	27	1	1
7	0	8	23	49	7	1
8	0	9	17	49	7	1
9	0	14	219	184	6	1
10	1	15	19	113	6	1
11	1	16	65	242	6	1
12	1	17	128	232	6	1
13	1	18	240	116	6	1
14	1	19	87	163	6	1
15	1	20	52	172	6	1
16	1	21	83	139	6	1
17	1	22	166	65	6	1
18	1	23	185	28	6	1
19	1	24	73	164	6	1
20	0	25	55	159	7	0
21	0	26	145	34	7	0
22	0	27	15	111	7	0
23	0	28	22	72	7	0
24	0	29	160	195	7	0
25	0	30	59	68	7	0
26	1	31	10	28	6	1
27	0	32	23	16	12	1
28	0	33	28	16	7	1
29	0	34	17	16	7	1
30	0	35	14	43	7	1
31	0	36	79	22	6	1
32	0	37	71	67	7	0
33	0	38	60	84	7	0
34	0	39	11	90	7	0
35	0	40	80	94	7	0
36	0	41	54	34	7	0
37	0	42	41	46	6	0
38	0	43	138	66	7	0
39	0	50	0	0	1	0
40	0	51	0	0	1	0
41	0	71	41	46	6	0
42	0	72	41	46	6	0
43	0	73	41	46	6	0
44	0	74	41	46	6	0
45	0	75	41	46	6	0
46	0	76	41	46	6	0
47	0	77	41	46	6	0
48	0	44	54	15	6	0
49	0	78	65	242	6	0
50	0	45	9	11	1	0
51	0	46	10	39	1	0
52	0	80	64	14	6	1
53	0	81	12	25	1	0
54	0	82	13	65	1	0
55	0	83	55	25	1	0
56	0	90	11	25	1	0
57	0	91	34	26	1	0
58	0	92	36	26	1	0
59	0	93	38	26	1	0
60	0	94	40	26	1	0
62	0	96	13	21	1	0
63	0	97	13	19	1	0
64	0	10	10	26	8	1
65	0	99	33	29	1	1
66	0	100	56	17	1	1
67	0	101	57	17	1	1
68	0	102	10	26	1	1
69	0	103	10	39	1	1
70	0	104	10	35	1	1
27	0	105	14	20	1	0
28	0	106	14	23	1	0
20	0	107	35	26	1	0
21	0	108	35	18	1	0
22	0	109	35	16	1	0
23	0	110	12	24	1	0
24	0	111	13	17	1	0
25	0	112	14	12	1	0
26	0	113	9	14	1	0
27	0	114	34	32	1	0
28	0	115	35	18	1	0
29	0	116	11	39	8	1
						
[WarpLst]	NpcsIdx	NSetIdx	TargetIdx	LV	Fee	Type
0	14	0	110	0	0	1
1	14	1	116	0	0	1
2	14	2	118	0	0	1
3	14	3	120	0	0	1
4	14	4	122	0	0	1
5	14	5	4107	100	0	2
6	14	6	4108	100	0	2
7	14	7	4109	100	0	2
8	14	8	4119	100	0	2
9	14	9	4135	0	0	1
10	14	10	4280	100	0	2
11	15	0	44	1	0	0
12	16	0	148	1	0	2
13	16	1	106	0	0	1
14	16	2	175	1	0	2
15	16	3	4126	0	0	1
16	16	4	4289	100	0	1
17	16	5	4333	100	0	1
18	16	6	4313	100	0	1
19	16	7	4334	100	0	1
20	16	8	4335	100	0	1
21	17	0	4130	0	0	1
22	18	0	49	80	0	0
23	18	1	168	1	0	2
24	18	2	69	0	0	1
25	18	3	78	0	0	1
26	18	4	80	0	0	1
27	18	5	176	1	0	2
28	19	0	4131	0	0	1
29	20	0	4143	0	0	1
30	21	0	4149	0	0	1
31	21	1	4185	0	0	1
32	21	2	4186	0	0	1
33	21	3	4187	0	0	1
34	21	4	4188	0	0	1
35	22	0	4140	0	0	1
36	23	0	4136	0	0	1
37	24	0	4138	0	0	1
38	31	0	297	0	0	2
39	31	1	298	0	0	2
40	31	2	299	0	0	2
41	31	3	300	0	0	2
42	31	4	301	0	0	2
43	36	0	4251	100	0	2
44	36	1	4276	100	0	2
45	36	2	4338	100	0	2
46	36	3	4343	100	0	2
58	36	4	4111	30	0	2
59	36	5	4112	65	0	2
60	36	6	4113	95	0	2
61	36	7	4114	100	0	2
62	36	8	4115	100	0	2
63	36	9	4116	100	0	2
47	42	0	4127	0	0	1
48	44	0	4337	100	0	2
49	44	1	4254	100	0	2
50	44	2	4255	100	0	2
51	71	0	4221	0	0	1
52	72	0	4222	0	0	1
53	73	0	4223	0	0	1
54	74	0	4224	0	0	1
55	75	0	4225	0	0	1
56	76	0	4226	0	0	1
57	77	0	4227	0	0	1
64	80	0	4348	100	0	2
65	14	11	4362	100	0	2
66	36	10	4349	100	0	2
						
[SkillLst]	NSetIdx	NpcsIdx	SkillIdx	SkillLv	SkillBook	
0	0	2	2	1	1848
1	1	2	3	1	1849
2	2	2	4	1	1850
3	3	2	5	1	1851
4	4	2	23	1	1869
5	5	2	6	1	1852
6	6	2	25	1	1871
7	7	2	8	1	1854
8	8	2	9	1	1855
9	9	2	10	1	1856
10	10	2	11	1	1857
11	11	2	12	1	1858
12	12	2	13	1	1859
13	13	2	32	1	1878
14	14	2	15	1	1861
15	15	2	16	1	1862
16	16	2	17	1	1863
17	17	2	18	1	1864
18	18	2	19	1	1865
19	19	2	31	1	1877
20	20	2	20	1	1866
21	21	2	33	1	1879
22	22	2	21	1	1867
23	23	2	24	1	1870
24	24	2	27	1	1873
25	25	2	28	1	1874
26	26	2	29	1	1875
27	27	2	30	1	1876
28	28	2	14	1	1860
29	29	2	26	1	1872
30	30	2	7	1	1853
31	31	2	34	1	1880
32	32	2	35	1	1881
33	33	2	36	1	1882
34	34	2	37	1	1883
35	35	2	39	1	1885
36	36	2	40	1	1886
37	37	2	41	1	1887
38	38	2	42	1	1888
39	39	2	43	1	1889
40	40	2	44	1	1890
41	41	2	45	1	1891
42	42	2	46	1	1892
43	43	2	47	1	1962
44	44	2	48	1	1969
45	45	2	49	1	3583
46	46	2	50	1	3594
47	47	2	51	1	1893
48	48	2	52	1	1894
49	49	2	53	1	1895
50	50	2	54	1	1896
51	51	2	55	1	1897
52	52	2	56	1	1898
53	53	2	57	1	1899
54	54	2	58	1	1900
55	55	2	59	1	2006
56	56	2	60	1	3604
57	57	2	63	1	2311
58	58	2	64	1	2312
59	59	2	65	1	2313
60	60	2	66	1	2314
61	61	2	68	1	1901
62	62	2	70	1	1902
63	63	2	71	1	1903
64	64	2	72	1	3626
65	65	2	73	1	3627
66	66	2	74	1	3628
67	67	2	75	1	3629
68	68	2	88	1	4029
69	69	2	76	1	4017
70	70	2	97	1	4041
71	71	2	77	1	4018
72	72	2	98	1	4042
73	73	2	78	1	4019
74	74	2	79	1	4020
75	75	2	80	1	4021
76	76	2	81	1	4022
77	77	2	82	1	4023
78	78	2	83	1	4024
79	79	2	84	1	4025
80	80	2	85	1	4026
81	81	2	86	1	4027
82	82	2	87	1	4028
83	83	2	317	1	4083
84	84	2	89	1	4030
85	85	2	90	1	4031
86	86	2	91	1	4032
87	87	2	92	1	4033
88	88	2	93	1	4034
89	89	2	94	1	4035
90	90	2	95	1	4036
91	91	2	96	1	4040
92	92	2	99	1	3641
93	93	2	132	1	1936
94	94	2	133	1	1937
95	95	2	158	1	1956
96	96	2	256	1	2014
97	97	2	259	1	2017
98	98	2	258	1	2016
99	99	2	115	1	1919
100	100	2	116	1	1920
101	101	2	117	1	1921
102	102	2	118	1	1922
103	103	2	119	1	1923
104	104	2	120	1	1924
105	105	2	241	1	1999
106	106	2	134	1	1938
107	107	2	135	1	1939
108	108	2	249	1	2007
109	109	2	122	1	1926
110	110	2	123	1	1927
111	111	2	124	1	1928
112	112	2	125	1	1929
113	113	2	126	1	1930
114	114	2	127	1	1931
115	115	2	128	1	1932
116	116	2	129	1	1933
117	117	2	130	1	1934
118	118	2	131	1	1935
119	119	2	136	1	1940
120	120	2	137	1	1941
121	121	2	138	1	1942
122	122	2	139	1	1943
123	123	2	140	1	1944
124	124	2	141	1	1945
125	125	2	148	1	1946
126	126	2	149	1	1947
127	127	2	150	1	1948
128	128	2	151	1	1949
129	129	2	152	1	1950
130	130	2	153	1	1951
131	131	2	154	1	1952
132	132	2	155	1	1953
133	133	2	156	1	1954
134	134	2	157	1	1955
135	135	2	159	1	1957
136	136	2	167	1	2315
137	137	2	168	1	2316
138	138	2	169	1	3630
139	139	2	170	1	3631
140	140	2	171	1	4043
141	141	2	172	1	4044
142	142	2	173	1	4045
143	143	2	174	1	4046
144	144	2	176	1	4050
145	145	2	177	1	4051
146	146	2	178	1	4052
147	147	2	181	1	4086
148	148	2	189	1	3632
149	149	2	190	1	3633
150	150	2	191	1	3634
151	151	2	192	1	3635
152	152	2	193	1	3636
153	153	2	194	1	3637
154	154	2	202	1	1958
155	155	2	203	1	1961
156	156	2	205	1	1963
157	157	2	206	1	1964
158	158	2	207	1	1965
159	159	2	208	1	1966
160	160	2	209	1	1967
161	161	2	210	1	1968
162	162	2	211	1	3547
163	163	2	212	1	1970
164	164	2	213	1	1971
165	165	2	214	1	1972
166	166	2	215	1	1973
167	167	2	216	1	1974
168	168	2	217	1	1975
169	169	2	219	1	1977
170	170	2	220	1	1978
171	171	2	221	1	1979
172	172	2	222	1	1980
173	173	2	469	1	2137
174	174	2	223	1	1981
175	175	2	224	1	1982
176	176	2	225	1	1983
177	177	2	226	1	1984
178	178	2	228	1	1986
179	179	2	229	1	1987
180	180	2	230	1	1988
181	181	2	231	1	1989
182	182	2	233	1	1991
183	183	2	234	1	1992
184	184	2	235	1	1993
185	185	2	236	1	1994
186	186	2	239	1	1997
187	187	2	242	1	2000
188	188	2	245	1	2003
189	189	2	247	1	2005
190	190	2	251	1	2009
191	191	2	250	1	2008
192	192	2	253	1	2011
193	193	2	254	1	2012
194	194	2	255	1	2013
195	195	2	260	1	2018
196	196	2	261	1	2019
197	197	2	262	1	2020
198	198	2	268	1	3625
199	199	2	269	1	2022
200	200	2	270	1	2023
201	201	2	271	1	2024
202	202	2	274	1	2027
203	203	2	287	1	3556
204	204	2	288	1	3638
205	205	2	289	1	3639
206	206	2	292	1	3640
207	207	2	396	1	4057
208	208	2	293	1	1592
209	209	2	294	1	1593
210	210	2	315	1	4081
211	211	2	316	1	4082
212	212	2	399	1	4060
213	213	2	352	1	4061
214	214	2	353	1	4062
215	215	2	355	1	4064
216	216	2	354	1	4063
217	217	2	356	1	4065
218	218	2	357	1	4066
219	219	2	358	1	4067
220	220	2	359	1	4068
221	221	2	368	1	4069
222	222	2	369	1	4070
223	223	2	370	1	2604
224	224	2	371	1	2605
225	225	2	372	1	2606
226	226	2	373	1	2607
227	227	2	374	1	2608
228	228	2	375	1	2609
229	229	2	376	1	2610
230	230	2	397	1	4058
231	231	2	377	1	2611
232	232	2	378	1	4079
233	233	2	379	1	4080
234	234	2	395	1	4084
235	235	2	398	1	4059
236	236	2	439	1	2122
237	237	2	440	1	2123
238	238	2	441	1	2124
239	239	2	442	1	2125
240	240	2	443	1	2126
241	241	2	444	1	2127
242	242	2	445	1	2128
243	243	2	446	1	2129
244	244	2	447	1	2130
245	245	2	448	1	2131
246	246	2	449	1	2132
247	247	2	450	1	2133
248	248	2	451	1	2134
249	249	2	471	1	2349
250	250	2	472	1	2350
251	251	2	473	1	2351
252	252	2	204	1	3538
253	253	2	299	1	3561
254	254	2	468	1	2136
255	255	2	240	1	1998
256	256	2	272	1	1985
257	257	2	295	1	1594
258	258	2	179	1	4053
259	259	2	180	1	4085
260	260	2	195	1	3592
261	261	2	248	1	3593
262	262	2	273	1	2026
263	263	2	291	1	3835